n_res = 4;
rc = [ 14, 12, 12, 11 ];
n_tasks = 15;
d = [ 3, 4, 2, 10, 225, 125, 75, 225, 125, 175, 150, 1, 9, 4, 8 ];
rr = [| 0, 4, 4, 6, 0, 4, 5, 4, 10, 8, 2, 0, 5, 1, 2
      | 0, 9, 0, 2, 9, 0, 3, 0, 4, 0, 9, 0, 4, 0, 0
      | 0, 1, 2, 10, 10, 0, 5, 6, 0, 9, 0, 4, 0, 0, 0
      | 4, 4, 0, 0, 0, 0, 2, 0, 0, 0, 2, 0, 6, 0, 9 |];
suc = [ { 4 },
       { 15 },
       { 13 },
       { 5, 7, 9 },
       { 6, 8, 11 },
       { 10 },
       {  },
       { 10, 14 },
       { 11 },
       { 12 },
       { 14 },
       {  },
       {  },
       {  },
       {  } ];
